Route #1: 30 8 59 46 56 49 31
Route #2: 15 47 9 34 22
Route #3: 25 35 6 26 33 51 62 39
Route #4: 10 61 2 21 52 19 42
Route #5: 23 11 17 43 24 12 54 58 14 41
Route #6: 37 57 38 53 7 20 1 18
Route #7: 50 27 36 45
Route #8: 28 29
Route #9: 48 32 13 55 5
Route #10: 60 44 16 40 3 4
Cost 1496
Time 0.105434
